c read Graph
c width = 77
c time = 318 ms
c width = 5
c time = 439 ms
c width = 5
c time = 4163 ms
s td 86 6 90
b 1 1 2 19
b 2 2 3 19 20
b 3 16 17 35 36
b 4 3 19 20 37
b 5 16 35 36 54
b 6 37 55 56 74
b 7 54 71 72 89
b 8 37 56 74 75
b 9 54 71 88 89
b 10 3 4 5 22
b 11 5 6 7 24
b 12 7 8 9 26
b 13 9 10 11 28
b 14 11 12 13 30
b 15 13 14 15 32
b 16 3 20 21 37 38
b 17 16 34 35 53 54
b 18 15 16 34 53 54
b 19 37 38 56 57 75
b 20 53 54 70 71 88
b 21 37 38 57 75 76
b 22 59 76 77 78
b 23 61 78 79 80
b 24 63 80 81 82
b 25 65 82 83 84
b 26 67 84 85 86
b 27 69 86 87 88
b 28 5 22 23 24 41
b 29 7 24 25 26 43
b 30 9 26 27 28 45
b 31 11 28 29 30 47
b 32 13 30 31 32 49
b 33 15 32 33 34 51
b 34 34 51 52 53 70
b 35 15 34 53 54 70 88
b 36 15 34 51 53 70 88
b 37 15 32 34 51 70 88
b 38 15 32 51 69 70 88
b 39 13 15 32 51 69 88
b 40 13 32 50 51 69 88
b 41 50 67 68 69 86
b 42 13 32 50 69 86 88
b 43 13 32 50 67 69 86
b 44 13 32 49 50 67 86
b 45 13 30 32 49 67 86
b 46 11 13 30 49 67 86
b 47 11 30 48 49 67 86
b 48 48 65 66 67 84
b 49 11 30 48 67 84 86
b 50 11 30 48 65 67 84
b 51 11 30 47 48 65 84
b 52 11 28 30 47 65 84
b 53 9 11 28 47 65 84
b 54 9 28 46 47 65 84
b 55 46 63 64 65 82
b 56 9 28 46 65 82 84
b 57 9 28 46 63 65 82
b 58 9 28 45 46 63 82
b 59 9 26 28 45 63 82
b 60 7 9 26 45 63 82
b 61 7 26 44 45 63 82
b 62 44 61 62 63 80
b 63 7 26 44 63 80 82
b 64 7 26 44 61 63 80
b 65 7 26 43 44 61 80
b 66 7 24 26 43 61 80
b 67 5 7 24 43 61 80
b 68 5 24 42 43 61 80
b 69 42 59 60 61 78
b 70 5 24 42 61 78 80
b 71 5 24 42 59 61 78
b 72 5 24 41 42 59 78
b 73 5 22 24 41 59 78
b 74 3 5 22 41 59 78
b 75 3 22 40 41 59 78
b 76 3 21 22 40 59 78
b 77 21 38 39 40 57
b 78 40 57 58 59 76
b 79 3 21 40 59 76 78
b 80 3 21 37 38 57 76
b 81 3 21 38 40 57 76
b 82 3 21 40 57 59 76
b 83 40 57 59 76
b 84 72 89 90
b 85 55 73 74
b 86 17 18 36
1 2
2 4
3 86
3 5
4 16
5 17
6 85
6 8
7 84
7 9
8 19
9 20
10 74
11 67
12 60
13 53
14 46
15 39
16 80
17 18
18 35
19 21
20 35
21 80
22 79
23 70
24 63
25 56
26 49
27 42
28 73
29 66
30 59
31 52
32 45
33 37
34 36
35 36
36 37
37 38
38 39
39 40
40 42
41 43
42 43
43 44
44 45
45 46
46 47
47 49
48 50
49 50
50 51
51 52
52 53
53 54
54 56
55 57
56 57
57 58
58 59
59 60
60 61
61 63
62 64
63 64
64 65
65 66
66 67
67 68
68 70
69 71
70 71
71 72
72 73
73 74
74 75
75 76
76 79
77 81
78 83
79 82
80 81
81 82
82 83
